Minimize
  - 7 y_0 - 8 y_1 - 7 y_2 - 3 y_4 - 6 y_5 - 4 y_6 - 7 y_7 - 11 y_8 - 8 y_9
   - 9 y_10 - 5 y_11 - 9 y_12 - 9 y_13 - y_14 - 2 y_15 - 6 y_16 - 5 y_17
   - 7 y_18 - 8 y_19 - 7 y_20 - 9 y_21 - 8 y_22 - 9 y_23 - 5 y_24 - 4 y_25
   - 6 y_26 - 8 y_27 - 8 y_28 - 10 y_29 - 12 y_30 - 13 y_31 - 5 y_32
   - 9 y_33 - 6 y_34 - 10 y_35 - 6 y_36 - 6 y_37 - 7 y_38 - 8 y_39 - 5 y_40
   - 7 y_41 - 5 y_42 - 5 y_43 - 9 y_44 - 9 y_45 - 7 y_46 - 2 y_47 - 10 y_48
   - 6 y_49 - 2 y_50 - 3 y_51 - 5 y_52 - 8 y_53 - 7 y_54 - 3 y_55 - 8 y_56
   - 7 y_57 - 10 y_58 - 5 y_59 - 6 y_60 - 11 y_61 - 8 y_62 - 12 y_63
   - 8 y_64 - 9 y_65 - 11 y_66 - 5 y_67 - 7 y_68 - 5 y_69 - 2 y_70 - 9 y_71
   - 10 y_72 - 2 y_73 - 6 y_74 - 5 y_75 - 5 y_76 - 8 y_77 - 7 y_78 - 2 y_79
   - 4 y_80 - 8 y_81 - 7 y_82 - 12 y_83 - 9 y_84 - 7 y_85 - 9 y_86 - 9 y_87
   - 9 y_88 - 5 y_89 - 7 y_90 - 11 y_91 - 3 y_92 - 9 y_93 - 6 y_94 - 6 y_95
   - 12 y_96 - 9 y_97 - 9 y_98 - 8 y_99 + 698 Constant
Subject To
 c_0: y_51 = 1
 c_1_0: y_0 + y_41 + y_85 >= 1
 c_1_1: y_1 >= 1
 c_1_2: y_2 + y_19 >= 1
 c_1_3: y_3 >= 1
 c_1_4: y_4 + y_92 >= 1
 c_1_5: y_5 + y_36 + y_37 + y_94 >= 1
 c_1_6: y_6 + y_69 >= 1
 c_1_7: y_7 + y_82 >= 1
 c_1_8: y_8 + y_29 + y_61 >= 1
 c_1_9: y_9 + y_39 >= 1
 c_1_10: y_10 + y_71 + y_84 >= 1
 c_1_11: y_11 + y_24 + y_67 >= 1
 c_1_12: y_12 + y_23 + y_44 >= 1
 c_1_13: y_13 >= 1
 c_1_14: y_14 >= 1
 c_1_15: y_15 + y_70 >= 1
 c_1_16: y_16 >= 1
 c_1_17: y_17 >= 1
 c_1_18: y_18 >= 1
 c_1_19: y_2 + y_19 >= 1
 c_1_20: y_20 >= 1
 c_1_21: y_21 + y_33 + y_45 >= 1
 c_1_22: y_22 >= 1
 c_1_23: y_12 + y_23 >= 1
 c_1_24: y_11 + y_24 + y_40 + y_67 >= 1
 c_1_25: y_25 >= 1
 c_1_26: y_26 + y_57 >= 1
 c_1_27: y_27 + y_39 >= 1
 c_1_28: y_28 + y_82 >= 1
 c_1_29: y_8 + y_29 >= 1
 c_1_30: y_30 + y_96 >= 1
 c_1_31: y_31 >= 1
 c_1_32: y_32 + y_89 >= 1
 c_1_33: y_21 + y_33 >= 1
 c_1_34: y_34 + y_74 >= 1
 c_1_35: y_35 >= 1
 c_1_36: y_5 + y_36 + y_94 >= 1
 c_1_37: y_5 + y_37 + y_94 >= 1
 c_1_38: y_38 >= 1
 c_1_39: y_9 + y_27 + y_39 >= 1
 c_1_40: y_24 + y_40 >= 1
 c_1_41: y_0 + y_41 + y_85 >= 1
 c_1_42: y_42 >= 1
 c_1_43: y_43 + y_75 >= 1
 c_1_44: y_12 + y_44 >= 1
 c_1_45: y_21 + y_45 + y_87 >= 1
 c_1_46: y_46 + y_90 >= 1
 c_1_47: y_47 + y_50 >= 1
 c_1_48: y_48 >= 1
 c_1_49: y_49 >= 1
 c_1_50: y_47 + y_50 >= 1
 c_1_51: y_51 >= 1
 c_1_52: y_52 + y_76 >= 1
 c_1_53: y_53 >= 1
 c_1_54: y_54 >= 1
 c_1_55: y_55 + y_79 >= 1
 c_1_56: y_56 >= 1
 c_1_57: y_26 + y_57 >= 1
 c_1_58: y_58 >= 1
 c_1_59: y_59 >= 1
 c_1_60: y_60 >= 1
 c_1_61: y_8 + y_61 >= 1
 c_1_62: y_62 + y_64 >= 1
 c_1_63: y_63 >= 1
 c_1_64: y_62 + y_64 >= 1
 c_1_65: y_65 >= 1
 c_1_66: y_66 >= 1
 c_1_67: y_11 + y_24 + y_67 >= 1
 c_1_68: y_68 >= 1
 c_1_69: y_6 + y_69 >= 1
 c_1_70: y_15 + y_70 + y_79 >= 1
 c_1_71: y_10 + y_71 + y_84 >= 1
 c_1_72: y_72 >= 1
 c_1_73: y_73 >= 1
 c_1_74: y_34 + y_74 >= 1
 c_1_75: y_43 + y_75 >= 1
 c_1_76: y_52 + y_76 >= 1
 c_1_77: y_77 >= 1
 c_1_78: y_78 >= 1
 c_1_79: y_55 + y_70 + y_79 >= 1
 c_1_80: y_80 >= 1
 c_1_81: y_81 >= 1
 c_1_82: y_7 + y_28 + y_82 >= 1
 c_1_83: y_83 >= 1
 c_1_84: y_10 + y_71 + y_84 + y_86 >= 1
 c_1_85: y_0 + y_41 + y_85 >= 1
 c_1_86: y_84 + y_86 >= 1
 c_1_87: y_45 + y_87 >= 1
 c_1_88: y_88 + y_97 >= 1
 c_1_89: y_32 + y_89 >= 1
 c_1_90: y_46 + y_90 >= 1
 c_1_91: y_91 >= 1
 c_1_92: y_4 + y_92 >= 1
 c_1_93: y_93 >= 1
 c_1_94: y_5 + y_36 + y_37 + y_94 >= 1
 c_1_95: y_95 >= 1
 c_1_96: y_30 + y_96 >= 1
 c_1_97: y_88 + y_97 >= 1
 c_1_98: y_98 >= 1
 c_1_99: y_99 >= 1
Bounds
 Constant = 1
Binaries
 y_0 y_1 y_2 y_3 y_4 y_5 y_6 y_7 y_8 y_9 y_10 y_11 y_12 y_13 y_14 y_15 y_16
 y_17 y_18 y_19 y_20 y_21 y_22 y_23 y_24 y_25 y_26 y_27 y_28 y_29 y_30 y_31
 y_32 y_33 y_34 y_35 y_36 y_37 y_38 y_39 y_40 y_41 y_42 y_43 y_44 y_45 y_46
 y_47 y_48 y_49 y_50 y_51 y_52 y_53 y_54 y_55 y_56 y_57 y_58 y_59 y_60 y_61
 y_62 y_63 y_64 y_65 y_66 y_67 y_68 y_69 y_70 y_71 y_72 y_73 y_74 y_75 y_76
 y_77 y_78 y_79 y_80 y_81 y_82 y_83 y_84 y_85 y_86 y_87 y_88 y_89 y_90 y_91
 y_92 y_93 y_94 y_95 y_96 y_97 y_98 y_99
End
